************************************************************************
file with basedata            : cr546_.bas
initial value random generator: 2035377092
************************************************************************
projects                      :  1
jobs (incl. supersource/sink ):  18
horizon                       :  126
RESOURCES
  - renewable                 :  5   R
  - nonrenewable              :  2   N
  - doubly constrained        :  0   D
************************************************************************
PROJECT INFORMATION:
pronr.  #jobs rel.date duedate tardcost  MPM-Time
    1     16      0       17        6       17
************************************************************************
PRECEDENCE RELATIONS:
jobnr.    #modes  #successors   successors
   1        1          3           2   3   4
   2        3          1           9
   3        3          2           9  10
   4        3          3           5   6  17
   5        3          3           7   8  13
   6        3          3          11  12  13
   7        3          3           9  10  12
   8        3          3          11  12  14
   9        3          2          11  14
  10        3          2          14  16
  11        3          1          15
  12        3          2          15  16
  13        3          1          16
  14        3          1          15
  15        3          1          18
  16        3          1          18
  17        3          1          18
  18        1          0        
************************************************************************
REQUESTS/DURATIONS:
jobnr. mode duration  R 1  R 2  R 3  R 4  R 5  N 1  N 2
------------------------------------------------------------------------
  1      1     0       0    0    0    0    0    0    0
  2      1     2       5    7    6    8    9   10    2
         2     3       4    7    6    8    6   10    1
         3     5       3    3    5    8    5   10    1
  3      1     8       4   10   10    6    7    5    6
         2     8       3    8   10    6    8    4    6
         3    10       2    2   10    4    5    3    5
  4      1     2       3    9    6    9    7    9    7
         2     7       2    5    5    6    6    8    6
         3     9       1    2    3    3    5    6    4
  5      1     1       3    8    2    9    8    6   10
         2     2       2    6    2    8    7    6   10
         3     7       1    5    1    7    4    4    9
  6      1     1       4    4    6    9    6    8   10
         2    10       3    3    5    3    5    8    5
         3    10       2    2    5    5    4    7    7
  7      1     1       5    6    8    8    7    4   10
         2     3       4    5    7    7    6    3    5
         3     9       3    5    4    6    5    1    3
  8      1     1       2    7    6    9    9    6    6
         2     6       2    6    6    7    6    6    4
         3     9       2    1    6    4    4    5    3
  9      1     3       7    7    3    3    9    6    7
         2     6       3    5    2    3    7    5    4
         3     7       2    5    2    3    6    4    2
 10      1     3       9    5    4    9    9    2    9
         2     3       9    4    4   10    8    3    9
         3     6       6    4    4    9    7    1    6
 11      1     1       5    8   10   10    9    6    6
         2     1       5    7   10   10    8    6    8
         3     7       3    4    8    6    8    5    3
 12      1     2       3    3    4    6    8    1    5
         2     7       3    2    4    4    5    1    5
         3     8       2    1    1    2    3    1    5
 13      1     2       3    6   10    8    8    7    9
         2     4       3    5    9    6    5    6    6
         3     7       3    3    8    5    4    5    5
 14      1     2       1    5    7   10    9    5   10
         2     3       1    3    6    5    8    5    7
         3     4       1    2    3    3    8    4    5
 15      1     4       9    7    9   10    6    8    2
         2     4       7    6    7   10    6    8    3
         3     9       5    2    5    9    6    5    2
 16      1     1       8    2    6    6    9    5    7
         2     6       8    2    5    3    6    5    7
         3     9       6    1    5    2    5    4    5
 17      1     3       6    8    8    7   10    6    9
         2     8       3    8    7    3    6    4    8
         3    10       3    7    6    2    2    2    7
 18      1     0       0    0    0    0    0    0    0
************************************************************************
RESOURCEAVAILABILITIES:
  R 1  R 2  R 3  R 4  R 5  N 1  N 2
   13   22   26   24   25   81   94
************************************************************************
